Instance name:    bar-n100-3
Authors:          PDPTW Solver
Date:             2025-11-20
Reference:        LNS with SA/RTR
Solution
Route 1 : 23 13 63 73 30 80 46 18 42 92 68 96 48 98
Route 2 : 31 26 76 40 81 36 25 75 12 62 86 34 41 90 35 2 52 84 91 85
Route 3 : 47 39 89 8 97 44 38 88 9 59 94 15 28 58 78 6 56 65
Route 4 : 1 19 69 51 5 33 49 99 45 83 43 55 95 93
Route 5 : 32 11 61 4 3 82 21 14 53 54 71 7 27 57 77 64
Route 6 : 20 24 74 70 37 50 10 60 87 29 79 22 100 72 16 66 17 67
